\ENCODING=ISO-8859-1
\Problem name: TSP

Minimize
 obj1: 4726.65314995717 x1,2 + 1204.34920185136 x1,3 + 6362.50210216075 x1,4
       + 3656.99124964772 x1,5 + 3129.5208898488 x1,6 + 2413.5223222502 x1,7
       + 562.304188140192 x1,8 + 462.082243761865 x1,9 + 5653.50333863879 x1,10
       + 1712.35656333604 x1,11 + 1603.56633788565 x1,12
       + 2367.19771037402 x1,13 + 2200.36542419663 x1,14
       + 1289.44522954641 x1,15 + 1003.88495356789 x1,16
       + 3832.68704696848 x1,17 + 2257.59894578289 x1,18
       + 3418.90391792457 x1,19 + 2266.98478159868 x1,20
       + 2956.02046677624 x1,21 + 719.95694315702 x1,22
       + 1699.31339075522 x1,23 + 5278.15659108367 x1,24
       + 2577.88479184001 x1,25 + 6075.46623725291 x1,26
       + 3464.67848436186 x1,27 + 2653.6829124822 x1,28
       + 3624.64591374109 x1,29 + 3114.92102628622 x1,30
       + 3587.42316990901 x2,3 + 2011.66224799294 x2,4 + 1841.4008254587 x2,5
       + 6976.77067130632 x2,6 + 6500.00276923018 x2,7 + 5186.86687702702 x2,8
       + 5027.70822542438 x2,9 + 2326.83518969436 x2,10
       + 4147.82364620291 x2,11 + 4722.74337647093 x2,12
       + 3634.91746811396 x2,13 + 3124.14244233518 x2,14
       + 4906.11098529171 x2,15 + 3929.6510023156 x2,16
       + 7462.78500293289 x2,17 + 6337.10036215303 x2,18
       + 7242.33180681471 x2,19 + 5104.55580829517 x2,20
       + 4042.94212177221 x2,21 + 4021.37091052293 x2,22
       + 3676.23992688181 x2,23 + 2862.58641790951 x2,24
       + 3105.93303211772 x2,25 + 1849.15656449096 x2,26
       + 7172.87703784193 x2,27 + 6629.00482727234 x2,28
       + 1203.18410893761 x2,29 + 6813.08865346694 x2,30
       + 5162.02770236658 x3,4 + 2457.86574084102 x3,5 + 3677.39581769491 x3,6
       + 3070.36040229808 x3,7 + 1741.99913892057 x3,8 + 1443.58754497259 x3,9
       + 4461.98935453683 x3,10 + 1183.62494059563 x3,11
       + 1519.9611837149 x3,12 + 1497.15597049873 x3,13
       + 1102.74430399798 x3,14 + 1500.85642218035 x3,15
       + 950.238917325532 x3,16 + 4297.45983110954 x3,17
       + 2902.44379790548 x3,18 + 3966.38437370863 x3,19
       + 2168.79436554045 x3,20 + 2208.89882067966 x3,21
       + 651.641772755553 x3,22 + 827.118492115852 x3,23
       + 4135.79907635755 x3,24 + 1517.27815511857 x3,25
       + 4872.96100948899 x3,26 + 3953.05578002638 x3,27
       + 3253.05548676932 x3,28 + 2445.98303346528 x3,29
       + 3580.28043594353 x3,30 + 2798.67289978661 x4,5 + 8063.71738096022 x4,6
       + 7726.78516590179 x4,7 + 6877.26871657637 x4,8 + 6580.34535567853 x4,9
       + 1401.70788682949 x4,10 + 5365.60471894828 x4,11
       + 5945.98755464557 x4,12 + 4678.9864287044 x4,13
       + 4377.00319853664 x4,14 + 6224.77951416755 x4,15
       + 5708.59177030553 x4,16 + 8416.99168349357 x4,17
       + 7577.25029281731 x4,18 + 8295.38938206038 x4,19
       + 6134.93284396822 x4,20 + 4801.4068771559 x4,21
       + 5706.34392584254 x4,22 + 4981.8756507966 x4,23
       + 2321.81997579485 x4,24 + 4177.34329448754 x4,25
       + 319.845275094068 x4,26 + 8185.60932368507 x4,27
       + 7799.94871778014 x4,28 + 2777.30102797662 x4,29
       + 7858.02939673809 x4,30 + 5329.47201887767 x5,6 + 4945.93418880599 x5,7
       + 4199.86487877884 x5,8 + 3823.60262056611 x5,9 + 2011.19989061257 x5,10
       + 2572.63289258301 x5,11 + 3156.11945274573 x5,12
       + 1923.09022149248 x5,13 + 1579.17098504247 x5,14
       + 3426.33127411813 x5,15 + 3178.24637182205 x5,16
       + 5748.34245674351 x5,17 + 4792.84007661428 x5,18
       + 5576.9831450346 x5,19 + 3408.22725181288 x5,20
       + 2222.25696083959 x5,21 + 3065.86317372449 x5,22
       + 2184.29233391504 x5,23 + 1859.25415153496 x5,24
       + 1400.11035279366 x5,25 + 2490.11907345814 x5,26
       + 5485.28522503616 x5,27 + 5034.30730091042 x5,28
       + 893.067186722253 x5,29 + 5140.42255072479 x5,30 + 742.82501304143 x6,7
       + 3208.38728958958 x6,8 + 2669.16260276514 x6,9 + 6928.2968325556 x6,10
       + 2830.10671176901 x6,11 + 2265.69768504097 x6,12
       + 3406.50260531238 x6,13 + 3853.17336749853 x6,14
       + 2177.32542354146 x6,15 + 4075.47813145893 x6,16
       + 726.006198320648 x6,17 + 880.193160618736 x6,18
       + 292.576485726382 x6,19 + 1929.21564372675 x6,20
       + 3309.31201309275 x6,21 + 3671.53278618073 x6,22
       + 3314.12990089405 x6,23 + 6198.37285099888 x6,24
       + 3931.80581921335 x6,25 + 7744.85590569637 x6,26
       + 364.869839805923 x6,27 + 481.682468022244 x6,28
       + 5773.95574974384 x6,29 + 260.461129537595 x6,30
       + 2467.29973858062 x7,8 + 1951.45740409572 x7,9 + 6672.58645504125 x7,10
       + 2379.73212778245 x7,11 + 1794.35364407354 x7,12
       + 3050.48405994852 x7,13 + 3404.89089399352 x7,14
       + 1603.17341544825 x7,15 + 3381.32592336202 x7,16
       + 1468.49174325224 x7,17 + 167.919623629878 x7,18
       + 1019.47535526858 x7,19 + 1680.16487286218 x7,20
       + 3109.42261521331 x7,21 + 2992.99515535859 x7,22
       + 2826.48757294279 x7,23 + 6008.84756005675 x7,24
       + 3551.05505448733 x7,25 + 7411.24173131601 x7,26
       + 1103.14686238959 x7,27 + 266.925083122587 x7,28
       + 5299.66187600681 x7,29 + 820.32981172209 x7,30 + 717.898321491282 x8,9
       + 6202.36809613876 x8,10 + 2240.41357789137 x8,11
       + 2050.41483607586 x8,12 + 2919.81454890546 x8,13
       + 2761.64769657536 x8,14 + 1686.6976611118 x8,15
       + 1303.75035953974 x8,16 + 3931.25577901006 x8,17
       + 2330.34182042034 x8,18 + 3486.41850614639 x8,19
       + 2668.53405449509 x8,20 + 3486.21929889673 x8,21
       + 1174.67442297855 x8,22 + 2259.14851216116 x8,23
       + 5839.01575610137 x8,24 + 3140.17196981312 x8,25
       + 6595.20613779433 x8,26 + 3562.82205561827 x8,27
       + 2727.00293362512 x8,28 + 4119.93786360911 x8,29
       + 3239.16856616015 x8,30 + 5788.32376426889 x9,10
       + 1601.48087718836 x9,11 + 1342.5442264596 x9,12
       + 2329.67487001942 x9,13 + 2290.91597401563 x9,14
       + 969.744811793288 x9,15 + 1450.63330997189 x9,16 + 3375.169625367 x9,17
       + 1795.86218847661 x9,18 + 2958.00608518644 x9,19
       + 1950.63579378622 x9,20 + 2834.5160080691 x9,21
       + 1111.68070955648 x9,22 + 1724.76375193822 x9,23
       + 5345.46546149164 x9,24 + 2627.59395645522 x9,25
       + 6284.77286781312 x9,26 + 3006.6601071621 x9,27
       + 2192.41077355499 x9,28 + 3888.50639706302 x9,29
       + 2660.02951111449 x9,30 + 4391.46729465221 x10,11
       + 4946.12019667941 x10,12 + 3647.93928129293 x10,13
       + 3500.027999888 x10,14 + 5273.25146375555 x10,15
       + 5182.12552916272 x10,16 + 7215.62374296221 x10,17
       + 6534.30799702616 x10,18 + 7139.65517374614 x10,19
       + 5021.06442898316 x10,20 + 3620.22665036321 x10,21
       + 5076.59748256645 x10,22 + 4089.16348413707 x10,23
       + 921.434208177665 x10,24 + 3206.64216899859 x10,25
       + 1130.84835411296 x10,26 + 7013.21245935128 x10,27
       + 6713.02204673871 x10,28 + 2436.40595960525 x10,29
       + 6706.29920298819 x10,30 + 585.431464818897 x11,12
       + 765.028104058929 x11,13 + 1028.96890137652 x11,14
       + 882.366137156226 x11,15 + 2039.67889629716 x11,16
       + 3352.39213100138 x11,17 + 2223.57639850759 x11,18
       + 3099.57819711005 x11,19 + 1048.16458631266 x11,20
       + 1245.95104237687 x11,21 + 1624.40912334301 x11,22
       + 502.132452645714 x11,23 + 3840.36899268807 x11,24
       + 1195.23094002791 x11,25 + 5053.00395804318 x11,26
       + 3041.86423102676 x11,27 + 2487.55984852626 x11,28
       + 2944.68691035227 x11,29 + 2675.71597894844 x11,30
       + 1298.34124944099 x12,13 + 1611.94695942515 x12,14
       + 405.294954323391 x12,15 + 2207.15654179761 x12,16
       + 2823.4030884732 x12,17 + 1638.23624669948 x12,18
       + 2541.76100371376 x12,19 + 693.732657440891 x12,20
       + 1585.57623594705 x12,21 + 1766.55399011748 x12,22
       + 1049.56228971891 x12,23 + 4356.47013073658 x12,24
       + 1769.95056428139 x12,25 + 5632.43153531403 x12,26
       + 2497.85347848908 x12,27 + 1906.92632264595 x12,28
       + 3519.80581850761 x12,29 + 2127.07733756909 x12,30
       + 645.876923260152 x13,14 + 1641.02467988754 x13,15
       + 2445.98160254733 x13,16 + 3839.15680846719 x13,17
       + 2904.23690493734 x13,18 + 3654.45987801207 x13,19
       + 1487.41554382089 x13,20 + 729.899993149746 x13,21
       + 2095.73877188928 x13,22 + 696.500538406109 x13,23
       + 3075.96391396258 x13,24 + 532.076122373481 x13,25
       + 4362.47464176011 x13,26 + 3566.20610733592 x13,27
       + 3121.77417504854 x13,28 + 2452.86872865223 x13,29
       + 3218.31322279234 x13,30 + 1852.06074414421 x14,15
       + 2025.08789932684 x14,16 + 4348.58620703327 x14,17
       + 3246.61747053761 x14,18 + 4118.22097512992 x14,19
       + 1996.90260153068 x14,20 + 1340.22274268123 x14,21
       + 1752.92498413366 x14,22 + 605.126433069982 x14,23
       + 3077.90789335873 x14,24 + 418.800668576353 x14,25
       + 4069.25177397516 x14,26 + 4051.16094471696 x14,27
       + 3516.52626891937 x14,28 + 1922.2554460841 x14,29
       + 3689.63968430523 x14,30 + 2028.2494915567 x15,16
       + 2802.26640418073 x15,17 + 1437.31485764254 x15,18
       + 2465.73011499637 x15,19 + 985.237534810768 x15,20
       + 1986.22556624367 x15,21 + 1592.11965630728 x15,22
       + 1252.55937982995 x15,23 + 4715.68361958264 x15,24
       + 2071.69519958897 x15,25 + 5914.72002718641 x15,26
       + 2453.92746429066 x15,27 + 1763.64395499772 x15,28
       + 3709.74783509607 x15,29 + 2081.67096343298 x15,30
       + 4758.91174534683 x16,17 + 3219.97919247936 x16,18
       + 4367.55549478195 x16,19 + 2899.39873077161 x16,20
       + 3150.7738731937 x16,21 + 441.040814437848 x16,22
       + 1764.54895086535 x16,23 + 4959.46327741218 x16,24
       + 2443.85126388657 x16,25 + 5442.44366070977 x16,26
       + 4395.36164609922 x16,27 + 3609.11346455054 x16,28
       + 2931.29135365286 x16,29 + 4033.93034149079 x16,30
       + 1600.94878119195 x17,18 + 476.615148731133 x17,19
       + 2358.31507648999 x17,20 + 3616.43595270261 x17,21
       + 4344.83325341721 x17,22 + 3850.94118365887 x17,23
       + 6432.50410027075 x17,24 + 4371.2080710028 x17,25
       + 8097.14641092774 x17,26 + 369.270903267506 x17,27
       + 1205.03485426771 x17,28 + 6266.38173111087 x17,29
       + 725.785781067665 x17,30 + 1164.72700664147 x18,19
       + 1562.26918295152 x18,20 + 2987.18630152189 x18,21
       + 2828.90809324022 x18,22 + 2665.26415201195 x18,23
       + 5881.08850469027 x18,24 + 3400.27190089263 x18,25
       + 7262.26032306747 x18,26 + 1232.51369160752 x18,27
       + 398.900990221885 x18,28 + 5137.39048545076 x18,29
       + 922.58116174134 x18,30 + 2169.43955896448 x19,20
       + 3519.84616141104 x19,21 + 3964.07996892091 x19,22
       + 3587.86426722082 x19,23 + 6392.2763551023 x19,24
       + 4182.75339937702 x19,25 + 7976.04776816187 x19,26
       + 201.357890334598 x19,27 + 766.188619074964 x19,28
       + 6040.29088703516 x19,29 + 437.594561209346 x19,30
       + 1429.94860047486 x20,21 + 2459.22792762281 x20,22
       + 1546.94602362203 x20,23 + 4332.75812849044 x20,24
       + 2018.11050242547 x20,25 + 5816.24019448991 x20,26
       + 2078.84318792929 x20,27 + 1693.89521517714 x20,28
       + 3909.31630851227 x20,29 + 1732.43441434301 x20,30
       + 2778.66964571177 x21,22 + 1386.22689340526 x21,23
       + 2904.49651402786 x21,24 + 1061.68969101146 x21,25
       + 4481.58822294061 x21,26 + 3397.01103913426 x21,27
       + 3118.638805633 x21,28 + 2921.19924003824 x21,29
       + 3086.08651855388 x21,30 + 1400.99536044913 x22,23
       + 4780.12813635785 x22,24 + 2165.03579647081 x22,25
       + 5426.99659111741 x22,26 + 3983.81688836221 x22,27
       + 3211.89056476089 x22,28 + 2945.35091287948 x22,29
       + 3619.09063163663 x22,30 + 3620.70227994515 x23,24
       + 902.91970850126 x23,25 + 4674.35043615688 x23,26
       + 3536.17095174993 x23,27 + 2953.19572666628 x23,28
       + 2474.25948517935 x23,29 + 3168.02541025163 x23,30
       + 2717.98546721648 x24,25 + 2041.70835331592 x24,26
       + 6253.81355654292 x24,27 + 6023.12609863018 x24,28
       + 2568.80225007687 x24,29 + 5965.46477652831 x24,30
       + 3863.06613973926 x25,26 + 4096.89065023708 x25,27
       + 3634.69902467866 x25,28 + 1931.12816767816 x25,29
       + 3747.24979151377 x25,30 + 7865.96268742739 x26,27
       + 7482.81905434042 x26,28 + 2514.45898753589 x26,29
       + 7538.72197391574 x26,30 + 838.116936948538 x27,28
       + 5972.84295792213 x27,29 + 373.065677863831 x27,30
       + 5426.33587239124 x28,29 + 557.98387073463 x28,30
       + 5611.87357305918 x29,30
Subject To
 Degree_constraint(1)#0:   x1,2 + x1,3 + x1,4 + x1,5 + x1,6 + x1,7 + x1,8
                           + x1,9 + x1,10 + x1,11 + x1,12 + x1,13 + x1,14
                           + x1,15 + x1,16 + x1,17 + x1,18 + x1,19 + x1,20
                           + x1,21 + x1,22 + x1,23 + x1,24 + x1,25 + x1,26
                           + x1,27 + x1,28 + x1,29 + x1,30  = 2
 Degree_constraint(2)#1:   x1,2 + x2,3 + x2,4 + x2,5 + x2,6 + x2,7 + x2,8
                           + x2,9 + x2,10 + x2,11 + x2,12 + x2,13 + x2,14
                           + x2,15 + x2,16 + x2,17 + x2,18 + x2,19 + x2,20
                           + x2,21 + x2,22 + x2,23 + x2,24 + x2,25 + x2,26
                           + x2,27 + x2,28 + x2,29 + x2,30  = 2
 Degree_constraint(3)#2:   x1,3 + x2,3 + x3,4 + x3,5 + x3,6 + x3,7 + x3,8
                           + x3,9 + x3,10 + x3,11 + x3,12 + x3,13 + x3,14
                           + x3,15 + x3,16 + x3,17 + x3,18 + x3,19 + x3,20
                           + x3,21 + x3,22 + x3,23 + x3,24 + x3,25 + x3,26
                           + x3,27 + x3,28 + x3,29 + x3,30  = 2
 Degree_constraint(4)#3:   x1,4 + x2,4 + x3,4 + x4,5 + x4,6 + x4,7 + x4,8
                           + x4,9 + x4,10 + x4,11 + x4,12 + x4,13 + x4,14
                           + x4,15 + x4,16 + x4,17 + x4,18 + x4,19 + x4,20
                           + x4,21 + x4,22 + x4,23 + x4,24 + x4,25 + x4,26
                           + x4,27 + x4,28 + x4,29 + x4,30  = 2
 Degree_constraint(5)#4:   x1,5 + x2,5 + x3,5 + x4,5 + x5,6 + x5,7 + x5,8
                           + x5,9 + x5,10 + x5,11 + x5,12 + x5,13 + x5,14
                           + x5,15 + x5,16 + x5,17 + x5,18 + x5,19 + x5,20
                           + x5,21 + x5,22 + x5,23 + x5,24 + x5,25 + x5,26
                           + x5,27 + x5,28 + x5,29 + x5,30  = 2
 Degree_constraint(6)#5:   x1,6 + x2,6 + x3,6 + x4,6 + x5,6 + x6,7 + x6,8
                           + x6,9 + x6,10 + x6,11 + x6,12 + x6,13 + x6,14
                           + x6,15 + x6,16 + x6,17 + x6,18 + x6,19 + x6,20
                           + x6,21 + x6,22 + x6,23 + x6,24 + x6,25 + x6,26
                           + x6,27 + x6,28 + x6,29 + x6,30  = 2
 Degree_constraint(7)#6:   x1,7 + x2,7 + x3,7 + x4,7 + x5,7 + x6,7 + x7,8
                           + x7,9 + x7,10 + x7,11 + x7,12 + x7,13 + x7,14
                           + x7,15 + x7,16 + x7,17 + x7,18 + x7,19 + x7,20
                           + x7,21 + x7,22 + x7,23 + x7,24 + x7,25 + x7,26
                           + x7,27 + x7,28 + x7,29 + x7,30  = 2
 Degree_constraint(8)#7:   x1,8 + x2,8 + x3,8 + x4,8 + x5,8 + x6,8 + x7,8
                           + x8,9 + x8,10 + x8,11 + x8,12 + x8,13 + x8,14
                           + x8,15 + x8,16 + x8,17 + x8,18 + x8,19 + x8,20
                           + x8,21 + x8,22 + x8,23 + x8,24 + x8,25 + x8,26
                           + x8,27 + x8,28 + x8,29 + x8,30  = 2
 Degree_constraint(9)#8:   x1,9 + x2,9 + x3,9 + x4,9 + x5,9 + x6,9 + x7,9
                           + x8,9 + x9,10 + x9,11 + x9,12 + x9,13 + x9,14
                           + x9,15 + x9,16 + x9,17 + x9,18 + x9,19 + x9,20
                           + x9,21 + x9,22 + x9,23 + x9,24 + x9,25 + x9,26
                           + x9,27 + x9,28 + x9,29 + x9,30  = 2
 Degree_constraint(10)#9:  x1,10 + x2,10 + x3,10 + x4,10 + x5,10 + x6,10
                           + x7,10 + x8,10 + x9,10 + x10,11 + x10,12 + x10,13
                           + x10,14 + x10,15 + x10,16 + x10,17 + x10,18
                           + x10,19 + x10,20 + x10,21 + x10,22 + x10,23
                           + x10,24 + x10,25 + x10,26 + x10,27 + x10,28
                           + x10,29 + x10,30  = 2
 Degree_constraint(11)#10: x1,11 + x2,11 + x3,11 + x4,11 + x5,11 + x6,11
                           + x7,11 + x8,11 + x9,11 + x10,11 + x11,12 + x11,13
                           + x11,14 + x11,15 + x11,16 + x11,17 + x11,18
                           + x11,19 + x11,20 + x11,21 + x11,22 + x11,23
                           + x11,24 + x11,25 + x11,26 + x11,27 + x11,28
                           + x11,29 + x11,30  = 2
 Degree_constraint(12)#11: x1,12 + x2,12 + x3,12 + x4,12 + x5,12 + x6,12
                           + x7,12 + x8,12 + x9,12 + x10,12 + x11,12 + x12,13
                           + x12,14 + x12,15 + x12,16 + x12,17 + x12,18
                           + x12,19 + x12,20 + x12,21 + x12,22 + x12,23
                           + x12,24 + x12,25 + x12,26 + x12,27 + x12,28
                           + x12,29 + x12,30  = 2
 Degree_constraint(13)#12: x1,13 + x2,13 + x3,13 + x4,13 + x5,13 + x6,13
                           + x7,13 + x8,13 + x9,13 + x10,13 + x11,13 + x12,13
                           + x13,14 + x13,15 + x13,16 + x13,17 + x13,18
                           + x13,19 + x13,20 + x13,21 + x13,22 + x13,23
                           + x13,24 + x13,25 + x13,26 + x13,27 + x13,28
                           + x13,29 + x13,30  = 2
 Degree_constraint(14)#13: x1,14 + x2,14 + x3,14 + x4,14 + x5,14 + x6,14
                           + x7,14 + x8,14 + x9,14 + x10,14 + x11,14 + x12,14
                           + x13,14 + x14,15 + x14,16 + x14,17 + x14,18
                           + x14,19 + x14,20 + x14,21 + x14,22 + x14,23
                           + x14,24 + x14,25 + x14,26 + x14,27 + x14,28
                           + x14,29 + x14,30  = 2
 Degree_constraint(15)#14: x1,15 + x2,15 + x3,15 + x4,15 + x5,15 + x6,15
                           + x7,15 + x8,15 + x9,15 + x10,15 + x11,15 + x12,15
                           + x13,15 + x14,15 + x15,16 + x15,17 + x15,18
                           + x15,19 + x15,20 + x15,21 + x15,22 + x15,23
                           + x15,24 + x15,25 + x15,26 + x15,27 + x15,28
                           + x15,29 + x15,30  = 2
 Degree_constraint(16)#15: x1,16 + x2,16 + x3,16 + x4,16 + x5,16 + x6,16
                           + x7,16 + x8,16 + x9,16 + x10,16 + x11,16 + x12,16
                           + x13,16 + x14,16 + x15,16 + x16,17 + x16,18
                           + x16,19 + x16,20 + x16,21 + x16,22 + x16,23
                           + x16,24 + x16,25 + x16,26 + x16,27 + x16,28
                           + x16,29 + x16,30  = 2
 Degree_constraint(17)#16: x1,17 + x2,17 + x3,17 + x4,17 + x5,17 + x6,17
                           + x7,17 + x8,17 + x9,17 + x10,17 + x11,17 + x12,17
                           + x13,17 + x14,17 + x15,17 + x16,17 + x17,18
                           + x17,19 + x17,20 + x17,21 + x17,22 + x17,23
                           + x17,24 + x17,25 + x17,26 + x17,27 + x17,28
                           + x17,29 + x17,30  = 2
 Degree_constraint(18)#17: x1,18 + x2,18 + x3,18 + x4,18 + x5,18 + x6,18
                           + x7,18 + x8,18 + x9,18 + x10,18 + x11,18 + x12,18
                           + x13,18 + x14,18 + x15,18 + x16,18 + x17,18
                           + x18,19 + x18,20 + x18,21 + x18,22 + x18,23
                           + x18,24 + x18,25 + x18,26 + x18,27 + x18,28
                           + x18,29 + x18,30  = 2
 Degree_constraint(19)#18: x1,19 + x2,19 + x3,19 + x4,19 + x5,19 + x6,19
                           + x7,19 + x8,19 + x9,19 + x10,19 + x11,19 + x12,19
                           + x13,19 + x14,19 + x15,19 + x16,19 + x17,19
                           + x18,19 + x19,20 + x19,21 + x19,22 + x19,23
                           + x19,24 + x19,25 + x19,26 + x19,27 + x19,28
                           + x19,29 + x19,30  = 2
 Degree_constraint(20)#19: x1,20 + x2,20 + x3,20 + x4,20 + x5,20 + x6,20
                           + x7,20 + x8,20 + x9,20 + x10,20 + x11,20 + x12,20
                           + x13,20 + x14,20 + x15,20 + x16,20 + x17,20
                           + x18,20 + x19,20 + x20,21 + x20,22 + x20,23
                           + x20,24 + x20,25 + x20,26 + x20,27 + x20,28
                           + x20,29 + x20,30  = 2
 Degree_constraint(21)#20: x1,21 + x2,21 + x3,21 + x4,21 + x5,21 + x6,21
                           + x7,21 + x8,21 + x9,21 + x10,21 + x11,21 + x12,21
                           + x13,21 + x14,21 + x15,21 + x16,21 + x17,21
                           + x18,21 + x19,21 + x20,21 + x21,22 + x21,23
                           + x21,24 + x21,25 + x21,26 + x21,27 + x21,28
                           + x21,29 + x21,30  = 2
 Degree_constraint(22)#21: x1,22 + x2,22 + x3,22 + x4,22 + x5,22 + x6,22
                           + x7,22 + x8,22 + x9,22 + x10,22 + x11,22 + x12,22
                           + x13,22 + x14,22 + x15,22 + x16,22 + x17,22
                           + x18,22 + x19,22 + x20,22 + x21,22 + x22,23
                           + x22,24 + x22,25 + x22,26 + x22,27 + x22,28
                           + x22,29 + x22,30  = 2
 Degree_constraint(23)#22: x1,23 + x2,23 + x3,23 + x4,23 + x5,23 + x6,23
                           + x7,23 + x8,23 + x9,23 + x10,23 + x11,23 + x12,23
                           + x13,23 + x14,23 + x15,23 + x16,23 + x17,23
                           + x18,23 + x19,23 + x20,23 + x21,23 + x22,23
                           + x23,24 + x23,25 + x23,26 + x23,27 + x23,28
                           + x23,29 + x23,30  = 2
 Degree_constraint(24)#23: x1,24 + x2,24 + x3,24 + x4,24 + x5,24 + x6,24
                           + x7,24 + x8,24 + x9,24 + x10,24 + x11,24 + x12,24
                           + x13,24 + x14,24 + x15,24 + x16,24 + x17,24
                           + x18,24 + x19,24 + x20,24 + x21,24 + x22,24
                           + x23,24 + x24,25 + x24,26 + x24,27 + x24,28
                           + x24,29 + x24,30  = 2
 Degree_constraint(25)#24: x1,25 + x2,25 + x3,25 + x4,25 + x5,25 + x6,25
                           + x7,25 + x8,25 + x9,25 + x10,25 + x11,25 + x12,25
                           + x13,25 + x14,25 + x15,25 + x16,25 + x17,25
                           + x18,25 + x19,25 + x20,25 + x21,25 + x22,25
                           + x23,25 + x24,25 + x25,26 + x25,27 + x25,28
                           + x25,29 + x25,30  = 2
 Degree_constraint(26)#25: x1,26 + x2,26 + x3,26 + x4,26 + x5,26 + x6,26
                           + x7,26 + x8,26 + x9,26 + x10,26 + x11,26 + x12,26
                           + x13,26 + x14,26 + x15,26 + x16,26 + x17,26
                           + x18,26 + x19,26 + x20,26 + x21,26 + x22,26
                           + x23,26 + x24,26 + x25,26 + x26,27 + x26,28
                           + x26,29 + x26,30  = 2
 Degree_constraint(27)#26: x1,27 + x2,27 + x3,27 + x4,27 + x5,27 + x6,27
                           + x7,27 + x8,27 + x9,27 + x10,27 + x11,27 + x12,27
                           + x13,27 + x14,27 + x15,27 + x16,27 + x17,27
                           + x18,27 + x19,27 + x20,27 + x21,27 + x22,27
                           + x23,27 + x24,27 + x25,27 + x26,27 + x27,28
                           + x27,29 + x27,30  = 2
 Degree_constraint(28)#27: x1,28 + x2,28 + x3,28 + x4,28 + x5,28 + x6,28
                           + x7,28 + x8,28 + x9,28 + x10,28 + x11,28 + x12,28
                           + x13,28 + x14,28 + x15,28 + x16,28 + x17,28
                           + x18,28 + x19,28 + x20,28 + x21,28 + x22,28
                           + x23,28 + x24,28 + x25,28 + x26,28 + x27,28
                           + x28,29 + x28,30  = 2
 Degree_constraint(29)#28: x1,29 + x2,29 + x3,29 + x4,29 + x5,29 + x6,29
                           + x7,29 + x8,29 + x9,29 + x10,29 + x11,29 + x12,29
                           + x13,29 + x14,29 + x15,29 + x16,29 + x17,29
                           + x18,29 + x19,29 + x20,29 + x21,29 + x22,29
                           + x23,29 + x24,29 + x25,29 + x26,29 + x27,29
                           + x28,29 + x29,30  = 2
 Degree_constraint(30)#29: x1,30 + x2,30 + x3,30 + x4,30 + x5,30 + x6,30
                           + x7,30 + x8,30 + x9,30 + x10,30 + x11,30 + x12,30
                           + x13,30 + x14,30 + x15,30 + x16,30 + x17,30
                           + x18,30 + x19,30 + x20,30 + x21,30 + x22,30
                           + x23,30 + x24,30 + x25,30 + x26,30 + x27,30
                           + x28,30 + x29,30  = 2
 Local_branching_10#30:    x1,8 + x1,16 + x2,4 + x2,29 + x3,22 + x3,23 + x4,26
                           + x5,25 + x5,29 + x6,19 + x6,28 + x7,18 + x7,28
                           + x8,9 + x9,15 + x10,24 + x10,26 + x11,12 + x11,13
                           + x12,20 + x13,21 + x14,23 + x14,25 + x15,18
                           + x16,22 + x17,19 + x17,27 + x20,30 + x21,24
                           + x27,30 >= 11
Bounds
 0 <= x1,2 <= 1
 0 <= x1,3 <= 1
 0 <= x1,4 <= 1
 0 <= x1,5 <= 1
 0 <= x1,6 <= 1
 0 <= x1,7 <= 1
 0 <= x1,8 <= 1
 0 <= x1,9 <= 1
 0 <= x1,10 <= 1
 0 <= x1,11 <= 1
 0 <= x1,12 <= 1
 0 <= x1,13 <= 1
 0 <= x1,14 <= 1
 0 <= x1,15 <= 1
 0 <= x1,16 <= 1
 0 <= x1,17 <= 1
 0 <= x1,18 <= 1
 0 <= x1,19 <= 1
 0 <= x1,20 <= 1
 0 <= x1,21 <= 1
 0 <= x1,22 <= 1
 0 <= x1,23 <= 1
 0 <= x1,24 <= 1
 0 <= x1,25 <= 1
 0 <= x1,26 <= 1
 0 <= x1,27 <= 1
 0 <= x1,28 <= 1
 0 <= x1,29 <= 1
 0 <= x1,30 <= 1
 0 <= x2,3 <= 1
 0 <= x2,4 <= 1
 0 <= x2,5 <= 1
 0 <= x2,6 <= 1
 0 <= x2,7 <= 1
 0 <= x2,8 <= 1
 0 <= x2,9 <= 1
 0 <= x2,10 <= 1
 0 <= x2,11 <= 1
 0 <= x2,12 <= 1
 0 <= x2,13 <= 1
 0 <= x2,14 <= 1
 0 <= x2,15 <= 1
 0 <= x2,16 <= 1
 0 <= x2,17 <= 1
 0 <= x2,18 <= 1
 0 <= x2,19 <= 1
 0 <= x2,20 <= 1
 0 <= x2,21 <= 1
 0 <= x2,22 <= 1
 0 <= x2,23 <= 1
 0 <= x2,24 <= 1
 0 <= x2,25 <= 1
 0 <= x2,26 <= 1
 0 <= x2,27 <= 1
 0 <= x2,28 <= 1
 0 <= x2,29 <= 1
 0 <= x2,30 <= 1
 0 <= x3,4 <= 1
 0 <= x3,5 <= 1
 0 <= x3,6 <= 1
 0 <= x3,7 <= 1
 0 <= x3,8 <= 1
 0 <= x3,9 <= 1
 0 <= x3,10 <= 1
 0 <= x3,11 <= 1
 0 <= x3,12 <= 1
 0 <= x3,13 <= 1
 0 <= x3,14 <= 1
 0 <= x3,15 <= 1
 0 <= x3,16 <= 1
 0 <= x3,17 <= 1
 0 <= x3,18 <= 1
 0 <= x3,19 <= 1
 0 <= x3,20 <= 1
 0 <= x3,21 <= 1
 0 <= x3,22 <= 1
 0 <= x3,23 <= 1
 0 <= x3,24 <= 1
 0 <= x3,25 <= 1
 0 <= x3,26 <= 1
 0 <= x3,27 <= 1
 0 <= x3,28 <= 1
 0 <= x3,29 <= 1
 0 <= x3,30 <= 1
 0 <= x4,5 <= 1
 0 <= x4,6 <= 1
 0 <= x4,7 <= 1
 0 <= x4,8 <= 1
 0 <= x4,9 <= 1
 0 <= x4,10 <= 1
 0 <= x4,11 <= 1
 0 <= x4,12 <= 1
 0 <= x4,13 <= 1
 0 <= x4,14 <= 1
 0 <= x4,15 <= 1
 0 <= x4,16 <= 1
 0 <= x4,17 <= 1
 0 <= x4,18 <= 1
 0 <= x4,19 <= 1
 0 <= x4,20 <= 1
 0 <= x4,21 <= 1
 0 <= x4,22 <= 1
 0 <= x4,23 <= 1
 0 <= x4,24 <= 1
 0 <= x4,25 <= 1
 0 <= x4,26 <= 1
 0 <= x4,27 <= 1
 0 <= x4,28 <= 1
 0 <= x4,29 <= 1
 0 <= x4,30 <= 1
 0 <= x5,6 <= 1
 0 <= x5,7 <= 1
 0 <= x5,8 <= 1
 0 <= x5,9 <= 1
 0 <= x5,10 <= 1
 0 <= x5,11 <= 1
 0 <= x5,12 <= 1
 0 <= x5,13 <= 1
 0 <= x5,14 <= 1
 0 <= x5,15 <= 1
 0 <= x5,16 <= 1
 0 <= x5,17 <= 1
 0 <= x5,18 <= 1
 0 <= x5,19 <= 1
 0 <= x5,20 <= 1
 0 <= x5,21 <= 1
 0 <= x5,22 <= 1
 0 <= x5,23 <= 1
 0 <= x5,24 <= 1
 0 <= x5,25 <= 1
 0 <= x5,26 <= 1
 0 <= x5,27 <= 1
 0 <= x5,28 <= 1
 0 <= x5,29 <= 1
 0 <= x5,30 <= 1
 0 <= x6,7 <= 1
 0 <= x6,8 <= 1
 0 <= x6,9 <= 1
 0 <= x6,10 <= 1
 0 <= x6,11 <= 1
 0 <= x6,12 <= 1
 0 <= x6,13 <= 1
 0 <= x6,14 <= 1
 0 <= x6,15 <= 1
 0 <= x6,16 <= 1
 0 <= x6,17 <= 1
 0 <= x6,18 <= 1
 0 <= x6,19 <= 1
 0 <= x6,20 <= 1
 0 <= x6,21 <= 1
 0 <= x6,22 <= 1
 0 <= x6,23 <= 1
 0 <= x6,24 <= 1
 0 <= x6,25 <= 1
 0 <= x6,26 <= 1
 0 <= x6,27 <= 1
 0 <= x6,28 <= 1
 0 <= x6,29 <= 1
 0 <= x6,30 <= 1
 0 <= x7,8 <= 1
 0 <= x7,9 <= 1
 0 <= x7,10 <= 1
 0 <= x7,11 <= 1
 0 <= x7,12 <= 1
 0 <= x7,13 <= 1
 0 <= x7,14 <= 1
 0 <= x7,15 <= 1
 0 <= x7,16 <= 1
 0 <= x7,17 <= 1
 0 <= x7,18 <= 1
 0 <= x7,19 <= 1
 0 <= x7,20 <= 1
 0 <= x7,21 <= 1
 0 <= x7,22 <= 1
 0 <= x7,23 <= 1
 0 <= x7,24 <= 1
 0 <= x7,25 <= 1
 0 <= x7,26 <= 1
 0 <= x7,27 <= 1
 0 <= x7,28 <= 1
 0 <= x7,29 <= 1
 0 <= x7,30 <= 1
 0 <= x8,9 <= 1
 0 <= x8,10 <= 1
 0 <= x8,11 <= 1
 0 <= x8,12 <= 1
 0 <= x8,13 <= 1
 0 <= x8,14 <= 1
 0 <= x8,15 <= 1
 0 <= x8,16 <= 1
 0 <= x8,17 <= 1
 0 <= x8,18 <= 1
 0 <= x8,19 <= 1
 0 <= x8,20 <= 1
 0 <= x8,21 <= 1
 0 <= x8,22 <= 1
 0 <= x8,23 <= 1
 0 <= x8,24 <= 1
 0 <= x8,25 <= 1
 0 <= x8,26 <= 1
 0 <= x8,27 <= 1
 0 <= x8,28 <= 1
 0 <= x8,29 <= 1
 0 <= x8,30 <= 1
 0 <= x9,10 <= 1
 0 <= x9,11 <= 1
 0 <= x9,12 <= 1
 0 <= x9,13 <= 1
 0 <= x9,14 <= 1
 0 <= x9,15 <= 1
 0 <= x9,16 <= 1
 0 <= x9,17 <= 1
 0 <= x9,18 <= 1
 0 <= x9,19 <= 1
 0 <= x9,20 <= 1
 0 <= x9,21 <= 1
 0 <= x9,22 <= 1
 0 <= x9,23 <= 1
 0 <= x9,24 <= 1
 0 <= x9,25 <= 1
 0 <= x9,26 <= 1
 0 <= x9,27 <= 1
 0 <= x9,28 <= 1
 0 <= x9,29 <= 1
 0 <= x9,30 <= 1
 0 <= x10,11 <= 1
 0 <= x10,12 <= 1
 0 <= x10,13 <= 1
 0 <= x10,14 <= 1
 0 <= x10,15 <= 1
 0 <= x10,16 <= 1
 0 <= x10,17 <= 1
 0 <= x10,18 <= 1
 0 <= x10,19 <= 1
 0 <= x10,20 <= 1
 0 <= x10,21 <= 1
 0 <= x10,22 <= 1
 0 <= x10,23 <= 1
 0 <= x10,24 <= 1
 0 <= x10,25 <= 1
 0 <= x10,26 <= 1
 0 <= x10,27 <= 1
 0 <= x10,28 <= 1
 0 <= x10,29 <= 1
 0 <= x10,30 <= 1
 0 <= x11,12 <= 1
 0 <= x11,13 <= 1
 0 <= x11,14 <= 1
 0 <= x11,15 <= 1
 0 <= x11,16 <= 1
 0 <= x11,17 <= 1
 0 <= x11,18 <= 1
 0 <= x11,19 <= 1
 0 <= x11,20 <= 1
 0 <= x11,21 <= 1
 0 <= x11,22 <= 1
 0 <= x11,23 <= 1
 0 <= x11,24 <= 1
 0 <= x11,25 <= 1
 0 <= x11,26 <= 1
 0 <= x11,27 <= 1
 0 <= x11,28 <= 1
 0 <= x11,29 <= 1
 0 <= x11,30 <= 1
 0 <= x12,13 <= 1
 0 <= x12,14 <= 1
 0 <= x12,15 <= 1
 0 <= x12,16 <= 1
 0 <= x12,17 <= 1
 0 <= x12,18 <= 1
 0 <= x12,19 <= 1
 0 <= x12,20 <= 1
 0 <= x12,21 <= 1
 0 <= x12,22 <= 1
 0 <= x12,23 <= 1
 0 <= x12,24 <= 1
 0 <= x12,25 <= 1
 0 <= x12,26 <= 1
 0 <= x12,27 <= 1
 0 <= x12,28 <= 1
 0 <= x12,29 <= 1
 0 <= x12,30 <= 1
 0 <= x13,14 <= 1
 0 <= x13,15 <= 1
 0 <= x13,16 <= 1
 0 <= x13,17 <= 1
 0 <= x13,18 <= 1
 0 <= x13,19 <= 1
 0 <= x13,20 <= 1
 0 <= x13,21 <= 1
 0 <= x13,22 <= 1
 0 <= x13,23 <= 1
 0 <= x13,24 <= 1
 0 <= x13,25 <= 1
 0 <= x13,26 <= 1
 0 <= x13,27 <= 1
 0 <= x13,28 <= 1
 0 <= x13,29 <= 1
 0 <= x13,30 <= 1
 0 <= x14,15 <= 1
 0 <= x14,16 <= 1
 0 <= x14,17 <= 1
 0 <= x14,18 <= 1
 0 <= x14,19 <= 1
 0 <= x14,20 <= 1
 0 <= x14,21 <= 1
 0 <= x14,22 <= 1
 0 <= x14,23 <= 1
 0 <= x14,24 <= 1
 0 <= x14,25 <= 1
 0 <= x14,26 <= 1
 0 <= x14,27 <= 1
 0 <= x14,28 <= 1
 0 <= x14,29 <= 1
 0 <= x14,30 <= 1
 0 <= x15,16 <= 1
 0 <= x15,17 <= 1
 0 <= x15,18 <= 1
 0 <= x15,19 <= 1
 0 <= x15,20 <= 1
 0 <= x15,21 <= 1
 0 <= x15,22 <= 1
 0 <= x15,23 <= 1
 0 <= x15,24 <= 1
 0 <= x15,25 <= 1
 0 <= x15,26 <= 1
 0 <= x15,27 <= 1
 0 <= x15,28 <= 1
 0 <= x15,29 <= 1
 0 <= x15,30 <= 1
 0 <= x16,17 <= 1
 0 <= x16,18 <= 1
 0 <= x16,19 <= 1
 0 <= x16,20 <= 1
 0 <= x16,21 <= 1
 0 <= x16,22 <= 1
 0 <= x16,23 <= 1
 0 <= x16,24 <= 1
 0 <= x16,25 <= 1
 0 <= x16,26 <= 1
 0 <= x16,27 <= 1
 0 <= x16,28 <= 1
 0 <= x16,29 <= 1
 0 <= x16,30 <= 1
 0 <= x17,18 <= 1
 0 <= x17,19 <= 1
 0 <= x17,20 <= 1
 0 <= x17,21 <= 1
 0 <= x17,22 <= 1
 0 <= x17,23 <= 1
 0 <= x17,24 <= 1
 0 <= x17,25 <= 1
 0 <= x17,26 <= 1
 0 <= x17,27 <= 1
 0 <= x17,28 <= 1
 0 <= x17,29 <= 1
 0 <= x17,30 <= 1
 0 <= x18,19 <= 1
 0 <= x18,20 <= 1
 0 <= x18,21 <= 1
 0 <= x18,22 <= 1
 0 <= x18,23 <= 1
 0 <= x18,24 <= 1
 0 <= x18,25 <= 1
 0 <= x18,26 <= 1
 0 <= x18,27 <= 1
 0 <= x18,28 <= 1
 0 <= x18,29 <= 1
 0 <= x18,30 <= 1
 0 <= x19,20 <= 1
 0 <= x19,21 <= 1
 0 <= x19,22 <= 1
 0 <= x19,23 <= 1
 0 <= x19,24 <= 1
 0 <= x19,25 <= 1
 0 <= x19,26 <= 1
 0 <= x19,27 <= 1
 0 <= x19,28 <= 1
 0 <= x19,29 <= 1
 0 <= x19,30 <= 1
 0 <= x20,21 <= 1
 0 <= x20,22 <= 1
 0 <= x20,23 <= 1
 0 <= x20,24 <= 1
 0 <= x20,25 <= 1
 0 <= x20,26 <= 1
 0 <= x20,27 <= 1
 0 <= x20,28 <= 1
 0 <= x20,29 <= 1
 0 <= x20,30 <= 1
 0 <= x21,22 <= 1
 0 <= x21,23 <= 1
 0 <= x21,24 <= 1
 0 <= x21,25 <= 1
 0 <= x21,26 <= 1
 0 <= x21,27 <= 1
 0 <= x21,28 <= 1
 0 <= x21,29 <= 1
 0 <= x21,30 <= 1
 0 <= x22,23 <= 1
 0 <= x22,24 <= 1
 0 <= x22,25 <= 1
 0 <= x22,26 <= 1
 0 <= x22,27 <= 1
 0 <= x22,28 <= 1
 0 <= x22,29 <= 1
 0 <= x22,30 <= 1
 0 <= x23,24 <= 1
 0 <= x23,25 <= 1
 0 <= x23,26 <= 1
 0 <= x23,27 <= 1
 0 <= x23,28 <= 1
 0 <= x23,29 <= 1
 0 <= x23,30 <= 1
 0 <= x24,25 <= 1
 0 <= x24,26 <= 1
 0 <= x24,27 <= 1
 0 <= x24,28 <= 1
 0 <= x24,29 <= 1
 0 <= x24,30 <= 1
 0 <= x25,26 <= 1
 0 <= x25,27 <= 1
 0 <= x25,28 <= 1
 0 <= x25,29 <= 1
 0 <= x25,30 <= 1
 0 <= x26,27 <= 1
 0 <= x26,28 <= 1
 0 <= x26,29 <= 1
 0 <= x26,30 <= 1
 0 <= x27,28 <= 1
 0 <= x27,29 <= 1
 0 <= x27,30 <= 1
 0 <= x28,29 <= 1
 0 <= x28,30 <= 1
 0 <= x29,30 <= 1
Binaries
 x1,2  x1,3  x1,4  x1,5  x1,6  x1,7  x1,8  x1,9  x1,10  x1,11  x1,12  x1,13 
 x1,14  x1,15  x1,16  x1,17  x1,18  x1,19  x1,20  x1,21  x1,22  x1,23  x1,24 
 x1,25  x1,26  x1,27  x1,28  x1,29  x1,30  x2,3  x2,4  x2,5  x2,6  x2,7  x2,8 
 x2,9  x2,10  x2,11  x2,12  x2,13  x2,14  x2,15  x2,16  x2,17  x2,18  x2,19 
 x2,20  x2,21  x2,22  x2,23  x2,24  x2,25  x2,26  x2,27  x2,28  x2,29  x2,30 
 x3,4  x3,5  x3,6  x3,7  x3,8  x3,9  x3,10  x3,11  x3,12  x3,13  x3,14  x3,15 
 x3,16  x3,17  x3,18  x3,19  x3,20  x3,21  x3,22  x3,23  x3,24  x3,25  x3,26 
 x3,27  x3,28  x3,29  x3,30  x4,5  x4,6  x4,7  x4,8  x4,9  x4,10  x4,11  x4,12 
 x4,13  x4,14  x4,15  x4,16  x4,17  x4,18  x4,19  x4,20  x4,21  x4,22  x4,23 
 x4,24  x4,25  x4,26  x4,27  x4,28  x4,29  x4,30  x5,6  x5,7  x5,8  x5,9 
 x5,10  x5,11  x5,12  x5,13  x5,14  x5,15  x5,16  x5,17  x5,18  x5,19  x5,20 
 x5,21  x5,22  x5,23  x5,24  x5,25  x5,26  x5,27  x5,28  x5,29  x5,30  x6,7 
 x6,8  x6,9  x6,10  x6,11  x6,12  x6,13  x6,14  x6,15  x6,16  x6,17  x6,18 
 x6,19  x6,20  x6,21  x6,22  x6,23  x6,24  x6,25  x6,26  x6,27  x6,28  x6,29 
 x6,30  x7,8  x7,9  x7,10  x7,11  x7,12  x7,13  x7,14  x7,15  x7,16  x7,17 
 x7,18  x7,19  x7,20  x7,21  x7,22  x7,23  x7,24  x7,25  x7,26  x7,27  x7,28 
 x7,29  x7,30  x8,9  x8,10  x8,11  x8,12  x8,13  x8,14  x8,15  x8,16  x8,17 
 x8,18  x8,19  x8,20  x8,21  x8,22  x8,23  x8,24  x8,25  x8,26  x8,27  x8,28 
 x8,29  x8,30  x9,10  x9,11  x9,12  x9,13  x9,14  x9,15  x9,16  x9,17  x9,18 
 x9,19  x9,20  x9,21  x9,22  x9,23  x9,24  x9,25  x9,26  x9,27  x9,28  x9,29 
 x9,30  x10,11  x10,12  x10,13  x10,14  x10,15  x10,16  x10,17  x10,18  x10,19 
 x10,20  x10,21  x10,22  x10,23  x10,24  x10,25  x10,26  x10,27  x10,28 
 x10,29  x10,30  x11,12  x11,13  x11,14  x11,15  x11,16  x11,17  x11,18 
 x11,19  x11,20  x11,21  x11,22  x11,23  x11,24  x11,25  x11,26  x11,27 
 x11,28  x11,29  x11,30  x12,13  x12,14  x12,15  x12,16  x12,17  x12,18 
 x12,19  x12,20  x12,21  x12,22  x12,23  x12,24  x12,25  x12,26  x12,27 
 x12,28  x12,29  x12,30  x13,14  x13,15  x13,16  x13,17  x13,18  x13,19 
 x13,20  x13,21  x13,22  x13,23  x13,24  x13,25  x13,26  x13,27  x13,28 
 x13,29  x13,30  x14,15  x14,16  x14,17  x14,18  x14,19  x14,20  x14,21 
 x14,22  x14,23  x14,24  x14,25  x14,26  x14,27  x14,28  x14,29  x14,30 
 x15,16  x15,17  x15,18  x15,19  x15,20  x15,21  x15,22  x15,23  x15,24 
 x15,25  x15,26  x15,27  x15,28  x15,29  x15,30  x16,17  x16,18  x16,19 
 x16,20  x16,21  x16,22  x16,23  x16,24  x16,25  x16,26  x16,27  x16,28 
 x16,29  x16,30  x17,18  x17,19  x17,20  x17,21  x17,22  x17,23  x17,24 
 x17,25  x17,26  x17,27  x17,28  x17,29  x17,30  x18,19  x18,20  x18,21 
 x18,22  x18,23  x18,24  x18,25  x18,26  x18,27  x18,28  x18,29  x18,30 
 x19,20  x19,21  x19,22  x19,23  x19,24  x19,25  x19,26  x19,27  x19,28 
 x19,29  x19,30  x20,21  x20,22  x20,23  x20,24  x20,25  x20,26  x20,27 
 x20,28  x20,29  x20,30  x21,22  x21,23  x21,24  x21,25  x21,26  x21,27 
 x21,28  x21,29  x21,30  x22,23  x22,24  x22,25  x22,26  x22,27  x22,28 
 x22,29  x22,30  x23,24  x23,25  x23,26  x23,27  x23,28  x23,29  x23,30 
 x24,25  x24,26  x24,27  x24,28  x24,29  x24,30  x25,26  x25,27  x25,28 
 x25,29  x25,30  x26,27  x26,28  x26,29  x26,30  x27,28  x27,29  x27,30 
 x28,29  x28,30  x29,30 
End
